c File: flat300_20_0.col
c
c SOURCE: Joseph Culberson (joe@cs.ualberta.ca)
c DESCRIPTION: Quasi-random coloring problem
c              generated with flatness = 0
c                             probability = 0.500
c                             known coloring = 20
c                             random seed = 871009181
c              Creation Date:  Fri Nov  5 11:48:39 1993
c Maximum degree = 160 Minimum degree = 127
p edge 300 21375
e 17 8
e 18 8
e 20 8
e 22 8
e 23 8
e 25 8
e 26 8
e 28 8
e 31 8
e 32 8
e 32 16
e 33 8
e 33 16
e 34 8
e 34 24
e 35 8
e 35 16
e 35 24
e 36 8
e 36 16
e 37 8
e 37 16
e 38 16
e 38 24
e 39 16
e 39 24
e 40 16
e 40 24
e 41 8
e 42 16
e 43 8
e 44 24
e 46 8
e 46 16
e 46 24
e 47 16
e 47 32
e 48 16
e 48 24
e 49 32
e 50 32
e 51 8
e 51 16
e 51 32
e 51 40
e 52 8
e 52 24
e 52 32
e 52 40
e 53 8
e 53 16
e 55 8
e 55 16
e 56 8
e 56 24
e 56 40
e 57 8
e 57 16
e 57 32
e 57 40
e 58 32
e 58 40
e 59 24
e 59 32
e 59 40
e 60 16
e 60 24
e 60 32
e 61 16
e 61 32
e 61 56
e 62 8
e 62 16
e 62 32
e 62 40
e 62 56
e 63 16
e 63 32
e 63 48
e 64 24
e 64 32
e 64 56
e 65 8
e 65 56
e 66 8
e 66 16
e 67 8
e 67 16
e 67 32
e 67 40
e 68 8
e 68 24
e 68 40
e 68 48
e 68 56
e 69 8
e 69 16
e 69 24
e 69 32
e 69 48
e 70 32
e 70 48
e 71 16
e 71 24
e 71 32
e 72 24
e 72 40
e 72 48
e 73 8
e 73 16
e 73 24
e 73 40
e 73 48
e 74 8
e 74 32
e 75 8
e 75 40
e 75 48
e 75 56
e 76 40
e 76 48
e 76 56
e 77 8
e 77 24
e 77 32
e 77 56
e 77 64
e 78 16
e 78 24
e 78 40
e 78 56
e 78 64
e 79 8
e 79 40
e 79 56
e 80 16
e 80 24
e 80 40
e 80 48
e 80 56
e 80 64
e 81 24
e 81 32
e 81 40
e 81 56
e 81 64
e 82 16
e 82 48
e 82 56
e 82 72
e 83 8
e 83 16
e 83 32
e 83 48
e 83 64
e 83 72
e 84 8
e 84 32
e 84 40
e 84 48
e 84 56
e 84 64
e 84 72
e 85 16
e 85 24
e 85 32
e 85 40
e 85 64
e 85 72
e 86 8
e 86 16
e 86 24
e 86 32
e 86 40
e 86 48
e 86 72
e 87 24
e 87 32
e 87 40
e 87 48
e 87 64
e 87 72
e 88 32
e 89 8
e 89 16
e 89 24
e 90 24
e 90 56
e 90 64
e 91 32
e 91 40
e 91 72
e 91 88
e 92 8
e 92 48
e 92 56
e 92 72
e 92 88
e 93 24
e 93 32
e 93 48
e 93 56
e 93 64
e 93 80
e 94 16
e 94 32
e 94 40
e 94 72
e 94 88
e 95 16
e 95 56
e 95 64
e 95 72
e 96 8
e 96 16
e 96 72
e 97 24
e 97 32
e 97 64
e 97 88
e 98 8
e 98 24
e 98 32
e 98 40
e 98 56
e 98 80
e 99 16
e 99 24
e 99 32
e 99 48
e 99 56
e 99 72
e 99 88
e 100 8
e 100 16
e 100 32
e 100 40
e 100 56
e 100 64
e 100 80
e 100 88
e 101 16
e 101 40
e 101 72
e 102 16
e 102 32
e 102 48
e 102 56
e 103 8
e 103 16
e 103 24
e 103 48
e 103 56
e 103 72
e 103 80
e 103 88
e 104 8
e 104 16
e 104 24
e 104 40
e 104 48
e 104 64
e 104 72
e 104 80
e 104 88
e 105 8
e 105 24
e 105 32
e 105 40
e 105 48
e 105 64
e 105 80
e 105 88
e 106 16
e 106 24
e 106 48
e 106 80
e 106 96
e 106 104
e 107 8
e 107 24
e 107 40
e 107 64
e 107 80
e 107 96
e 108 8
e 108 24
e 108 40
e 108 56
e 108 72
e 108 88
e 109 8
e 109 16
e 109 40
e 109 56
e 109 64
e 109 88
e 109 104
e 110 16
e 110 32
e 110 48
e 110 64
e 110 80
e 111 56
e 111 80
e 111 104
e 112 8
e 112 40
e 112 56
e 112 88
e 112 104
e 113 24
e 113 40
e 113 72
e 113 80
e 113 88
e 113 104
e 114 8
e 114 24
e 114 56
e 114 64
e 114 72
e 114 96
e 115 8
e 115 24
e 115 72
e 115 80
e 115 88
e 115 104
e 116 8
e 116 16
e 116 48
e 116 56
e 116 64
e 116 72
e 116 80
e 117 8
e 117 16
e 117 24
e 117 40
e 117 72
e 118 16
e 118 24
e 118 32
e 118 40
e 118 48
e 118 56
e 118 64
e 118 104
e 119 8
e 119 40
e 119 48
e 119 56
e 119 72
e 119 80
e 119 88
e 120 16
e 120 24
e 120 32
e 120 40
e 120 48
e 120 56
e 121 8
e 121 16
e 121 40
e 121 64
e 121 72
e 121 88
e 121 96
e 121 120
e 122 8
e 122 16
e 122 24
e 122 32
e 122 40
e 122 48
e 122 64
e 122 72
e 122 104
e 123 16
e 123 24
e 123 32
e 123 48
e 123 56
e 123 72
e 123 88
e 123 96
e 123 104
e 124 24
e 124 56
e 124 64
e 124 80
e 124 88
e 124 104
e 124 112
e 124 120
e 125 16
e 125 40
e 125 48
e 125 56
e 125 72
e 125 80
e 125 96
e 125 104
e 125 112
e 126 24
e 126 32
e 126 48
e 126 64
e 126 72
e 126 80
e 126 112
e 126 120
e 127 40
e 127 48
e 127 56
e 127 88
e 127 96
e 127 112
e 127 120
e 128 8
e 128 16
e 128 24
e 128 48
e 128 64
e 128 80
e 128 88
e 128 96
e 128 104
e 128 112
e 128 120
e 129 24
e 129 32
e 129 40
e 129 48
e 129 56
e 129 72
e 130 16
e 130 40
e 130 56
e 130 72
e 130 80
e 130 104
e 130 120
e 131 16
e 131 56
e 131 64
e 131 88
e 131 96
e 131 104
e 131 120
e 132 8
e 132 16
e 132 24
e 132 40
e 132 48
e 132 56
e 132 64
e 132 80
e 132 88
e 132 96
e 132 104
e 133 8
e 133 24
e 133 40
e 133 48
e 133 72
e 133 88
e 133 96
e 133 104
e 133 112
e 134 8
e 134 16
e 134 24
e 134 32
e 134 64
e 134 80
e 134 112
e 134 120
e 135 40
e 135 72
e 135 96
e 135 112
e 136 8
e 136 16
e 136 40
e 136 72
e 136 80
e 136 88
e 136 96
e 136 112
e 136 120
e 136 128
e 137 8
e 137 24
e 137 32
e 137 40
e 137 56
e 137 88
e 137 96
e 137 104
e 137 120
e 138 16
e 138 24
e 138 32
e 138 40
e 138 48
e 138 56
e 138 80
e 138 88
e 138 96
e 138 128
e 139 8
e 139 16
e 139 24
e 139 32
e 139 48
e 139 56
e 139 72
e 139 80
e 139 88
e 139 96
e 139 112
e 139 120
e 140 40
e 140 48
e 140 64
e 140 96
e 140 128
e 141 24
e 141 72
e 141 80
e 141 88
e 141 96
e 141 104
e 141 128
e 142 16
e 142 32
e 142 40
e 142 48
e 142 56
e 142 64
e 142 104
e 142 112
e 142 120
e 142 128
e 143 8
e 143 16
e 143 24
e 143 40
e 143 56
e 143 96
e 144 8
e 144 24
e 144 56
e 144 64
e 144 72
e 144 80
e 144 120
e 145 16
e 145 32
e 145 40
e 145 48
e 145 56
e 145 72
e 145 88
e 145 96
e 145 104
e 145 128
e 146 8
e 146 24
e 146 32
e 146 40
e 146 56
e 146 72
e 146 80
e 146 104
e 146 112
e 146 120
e 146 128
e 147 16
e 147 24
e 147 32
e 147 48
e 147 80
e 147 88
e 147 104
e 147 112
e 147 120
e 148 8
e 148 16
e 148 32
e 148 48
e 148 64
e 148 72
e 148 88
e 148 104
e 149 8
e 149 16
e 149 48
e 149 64
e 149 80
e 149 88
e 149 96
e 149 120
e 149 128
e 150 8
e 150 24
e 150 32
e 150 40
e 150 48
e 150 56
e 150 72
e 150 80
e 150 128
e 151 8
e 151 24
e 151 32
e 151 40
e 151 56
e 151 64
e 151 80
e 151 112
e 151 120
e 151 136
e 151 144
e 152 8
e 152 16
e 152 48
e 152 88
e 152 96
e 152 120
e 152 128
e 152 136
e 152 144
e 153 8
e 153 32
e 153 64
e 153 80
e 153 88
e 153 104
e 153 120
e 153 128
e 153 136
e 153 144
e 154 8
e 154 24
e 154 40
e 154 80
e 154 88
e 154 96
e 154 120
e 154 128
e 154 144
e 155 48
e 155 64
e 155 88
e 155 136
e 155 144
e 156 16
e 156 24
e 156 48
e 156 64
e 156 88
e 156 104
e 156 128
e 156 136
e 157 8
e 157 16
e 157 96
e 157 112
e 157 120
e 157 128
e 158 16
e 158 24
e 158 32
e 158 40
e 158 64
e 158 80
e 158 96
e 158 104
e 158 112
e 158 120
e 158 136
e 159 8
e 159 16
e 159 32
e 159 56
e 159 64
e 159 72
e 159 80
e 159 88
e 159 96
e 159 104
e 159 128
e 159 136
e 160 16
e 160 24
e 160 32
e 160 48
e 160 72
e 160 88
e 160 104
e 160 112
e 160 144
e 161 40
e 161 56
e 161 80
e 161 88
e 161 112
e 161 120
e 162 24
e 162 40
e 162 48
e 162 72
e 162 96
e 162 120
e 162 128
e 162 136
e 162 144
e 163 32
e 163 40
e 163 48
e 163 56
e 163 72
e 163 80
e 163 104
e 163 112
e 163 128
e 164 8
e 164 32
e 164 56
e 164 64
e 164 88
e 164 96
e 165 24
e 165 40
e 165 48
e 165 64
e 165 72
e 165 80
e 165 104
e 165 112
e 165 128
e 165 136
e 165 144
e 166 16
e 166 24
e 166 72
e 166 80
e 166 88
e 166 112
e 166 128
e 166 136
e 166 152
e 166 160
e 167 8
e 167 24
e 167 40
e 167 48
e 167 56
e 167 64
e 167 80
e 167 88
e 167 104
e 167 112
e 167 128
e 167 160
e 168 8
e 168 40
e 168 96
e 168 104
e 168 112
e 168 128
e 168 136
e 168 144
e 169 48
e 169 56
e 169 72
e 169 80
e 169 88
e 169 96
e 169 104
e 169 112
e 169 128
e 169 136
e 169 144
e 169 160
e 170 8
e 170 56
e 170 64
e 170 72
e 170 96
e 170 104
e 170 120
e 170 128
e 170 136
e 170 144
e 170 160
e 171 16
e 171 24
e 171 40
e 171 80
e 171 128
e 171 136
e 171 160
e 172 8
e 172 16
e 172 24
e 172 32
e 172 48
e 172 72
e 172 80
e 172 88
e 172 104
e 172 160
e 173 40
e 173 56
e 173 64
e 173 72
e 173 112
e 173 128
e 174 8
e 174 24
e 174 32
e 174 56
e 174 104
e 174 112
e 174 144
e 175 32
e 175 40
e 175 88
e 175 120
e 175 144
e 175 160
e 176 8
e 176 16
e 176 24
e 176 56
e 176 64
e 176 80
e 176 88
e 176 96
e 176 104
e 176 128
e 176 136
e 176 152
e 176 160
e 177 16
e 177 24
e 177 32
e 177 40
e 177 48
e 177 64
e 177 72
e 177 80
e 177 104
e 177 112
e 177 152
e 178 32
e 178 48
e 178 56
e 178 64
e 178 80
e 178 112
e 179 32
e 179 48
e 179 56
e 179 80
e 179 88
e 179 120
e 179 128
e 179 136
e 179 144
e 179 152
e 179 160
e 180 8
e 180 16
e 180 24
e 180 40
e 180 48
e 180 56
e 180 72
e 180 88
e 180 96
e 180 144
e 180 152
e 181 8
e 181 24
e 181 32
e 181 56
e 181 72
e 181 80
e 181 88
e 181 104
e 181 112
e 181 128
e 181 152
e 181 160
e 182 8
e 182 56
e 182 64
e 182 72
e 182 80
e 182 88
e 182 104
e 182 112
e 182 120
e 182 136
e 182 144
e 182 168
e 182 176
e 183 8
e 183 24
e 183 40
e 183 48
e 183 80
e 183 112
e 183 120
e 183 136
e 183 152
e 183 160
e 184 16
e 184 24
e 184 32
e 184 40
e 184 80
e 184 96
e 184 104
e 184 136
e 184 160
e 184 168
e 184 176
e 185 24
e 185 40
e 185 56
e 185 64
e 185 72
e 185 96
e 185 120
e 185 128
e 185 152
e 186 16
e 186 24
e 186 48
e 186 56
e 186 64
e 186 72
e 186 80
e 186 88
e 186 112
e 186 128
e 186 136
e 186 144
e 186 168
e 187 24
e 187 32
e 187 56
e 187 64
e 187 72
e 187 88
e 187 120
e 187 128
e 187 136
e 187 152
e 187 160
e 188 24
e 188 32
e 188 40
e 188 48
e 188 56
e 188 80
e 188 104
e 188 120
e 188 128
e 188 136
e 188 144
e 188 176
e 189 8
e 189 24
e 189 40
e 189 56
e 189 64
e 189 88
e 189 144
e 189 160
e 189 176
e 190 16
e 190 40
e 190 48
e 190 56
e 190 80
e 190 104
e 190 112
e 190 120
e 190 144
e 190 176
e 191 8
e 191 48
e 191 64
e 191 72
e 191 80
e 191 96
e 191 112
e 191 136
e 191 144
e 191 160
e 191 176
e 192 8
e 192 16
e 192 40
e 192 72
e 192 88
e 192 96
e 192 104
e 192 128
e 192 136
e 192 152
e 192 160
e 192 176
e 193 8
e 193 16
e 193 40
e 193 48
e 193 80
e 193 88
e 193 104
e 193 120
e 193 128
e 193 168
e 194 8
e 194 48
e 194 64
e 194 88
e 194 96
e 194 104
e 194 120
e 194 128
e 194 152
e 194 160
e 195 16
e 195 24
e 195 32
e 195 40
e 195 48
e 195 56
e 195 72
e 195 96
e 195 112
e 195 120
e 195 136
e 195 144
e 195 152
e 195 160
e 195 176
e 196 8
e 196 16
e 196 24
e 196 48
e 196 72
e 196 88
e 196 96
e 196 112
e 196 128
e 196 136
e 196 160
e 196 168
e 196 184
e 197 56
e 197 72
e 197 80
e 197 88
e 197 96
e 197 104
e 197 152
e 197 168
e 197 184
e 197 192
e 198 16
e 198 24
e 198 32
e 198 40
e 198 72
e 198 80
e 198 96
e 198 104
e 198 112
e 198 120
e 198 136
e 198 144
e 198 152
e 198 160
e 198 168
e 199 32
e 199 40
e 199 48
e 199 56
e 199 128
e 199 136
e 199 152
e 199 184
e 200 24
e 200 32
e 200 48
e 200 56
e 200 88
e 200 96
e 200 120
e 200 128
e 200 136
e 200 160
e 200 168
e 200 176
e 200 192
e 201 24
e 201 40
e 201 48
e 201 72
e 201 96
e 201 120
e 201 136
e 201 144
e 201 152
e 201 160
e 201 176
e 202 40
e 202 48
e 202 56
e 202 72
e 202 88
e 202 128
e 202 144
e 202 168
e 202 176
e 202 184
e 202 192
e 203 48
e 203 56
e 203 72
e 203 104
e 203 120
e 203 144
e 203 152
e 203 160
e 203 184
e 204 16
e 204 24
e 204 32
e 204 40
e 204 56
e 204 72
e 204 80
e 204 104
e 204 120
e 204 128
e 204 136
e 204 168
e 204 176
e 204 184
e 205 8
e 205 16
e 205 24
e 205 32
e 205 40
e 205 56
e 205 72
e 205 88
e 205 96
e 205 104
e 205 120
e 205 136
e 205 152
e 205 176
e 206 16
e 206 24
e 206 32
e 206 40
e 206 48
e 206 64
e 206 80
e 206 88
e 206 96
e 206 104
e 206 128
e 206 144
e 206 160
e 206 168
e 206 176
e 206 184
e 207 8
e 207 24
e 207 32
e 207 48
e 207 64
e 207 80
e 207 104
e 207 120
e 207 128
e 207 144
e 207 152
e 207 176
e 207 184
e 208 8
e 208 48
e 208 72
e 208 80
e 208 88
e 208 96
e 208 136
e 208 152
e 208 160
e 208 176
e 208 184
e 208 192
e 209 8
e 209 16
e 209 40
e 209 56
e 209 104
e 209 112
e 209 128
e 209 136
e 209 144
e 209 152
e 209 160
e 209 168
e 210 8
e 210 24
e 210 32
e 210 56
e 210 64
e 210 88
e 210 96
e 210 104
e 210 128
e 210 160
e 210 192
e 211 16
e 211 24
e 211 32
e 211 56
e 211 64
e 211 80
e 211 88
e 211 96
e 211 120
e 211 144
e 211 152
e 211 160
e 211 176
e 211 184
e 211 192
e 211 200
e 212 8
e 212 16
e 212 32
e 212 48
e 212 64
e 212 72
e 212 80
e 212 96
e 212 136
e 212 144
e 212 176
e 212 192
e 213 8
e 213 24
e 213 32
e 213 40
e 213 64
e 213 72
e 213 88
e 213 96
e 213 104
e 213 112
e 213 120
e 213 136
e 213 144
e 213 152
e 213 168
e 213 192
e 213 200
e 214 8
e 214 24
e 214 40
e 214 72
e 214 80
e 214 96
e 214 104
e 214 112
e 214 120
e 214 128
e 214 136
e 214 144
e 214 160
e 214 168
e 214 176
e 214 184
e 214 192
e 215 16
e 215 24
e 215 32
e 215 48
e 215 64
e 215 72
e 215 96
e 215 104
e 215 120
e 215 128
e 215 160
e 215 176
e 215 184
e 215 200
e 215 208
e 216 8
e 216 16
e 216 24
e 216 48
e 216 56
e 216 64
e 216 96
e 216 104
e 216 112
e 216 120
e 216 128
e 216 136
e 216 152
e 216 176
e 216 184
e 216 192
e 216 200
e 217 8
e 217 16
e 217 64
e 217 80
e 217 88
e 217 120
e 217 144
e 217 152
e 217 168
e 217 184
e 217 200
e 218 40
e 218 56
e 218 72
e 218 88
e 218 104
e 218 120
e 218 128
e 218 152
e 218 160
e 218 192
e 219 24
e 219 32
e 219 40
e 219 56
e 219 88
e 219 112
e 219 128
e 219 136
e 219 144
e 219 160
e 219 168
e 219 184
e 219 200
e 220 8
e 220 16
e 220 24
e 220 40
e 220 48
e 220 144
e 220 160
e 220 184
e 220 200
e 220 208
e 221 8
e 221 32
e 221 40
e 221 48
e 221 64
e 221 72
e 221 88
e 221 104
e 221 112
e 221 120
e 221 128
e 221 144
e 221 160
e 221 168
e 221 192
e 221 200
e 221 208
e 222 8
e 222 16
e 222 40
e 222 112
e 222 128
e 222 152
e 222 168
e 222 176
e 222 208
e 223 40
e 223 48
e 223 56
e 223 64
e 223 72
e 223 80
e 223 96
e 223 104
e 223 112
e 223 120
e 223 152
e 223 160
e 223 168
e 223 184
e 223 192
e 224 24
e 224 48
e 224 56
e 224 88
e 224 96
e 224 104
e 224 128
e 224 136
e 224 144
e 224 160
e 224 184
e 224 192
e 224 200
e 224 208
e 225 8
e 225 24
e 225 32
e 225 56
e 225 80
e 225 88
e 225 96
e 225 104
e 225 128
e 225 152
e 225 168
e 225 208
e 226 8
e 226 16
e 226 32
e 226 40
e 226 72
e 226 80
e 226 88
e 226 152
e 226 160
e 226 184
e 226 200
e 226 208
e 227 8
e 227 48
e 227 56
e 227 80
e 227 104
e 227 112
e 227 120
e 227 128
e 227 136
e 227 160
e 227 168
e 227 176
e 227 192
e 227 224
e 228 8
e 228 40
e 228 64
e 228 80
e 228 96
e 228 112
e 228 136
e 228 168
e 228 184
e 228 192
e 228 200
e 228 208
e 228 216
e 229 8
e 229 24
e 229 80
e 229 104
e 229 120
e 229 128
e 229 160
e 229 168
e 229 184
e 229 192
e 229 200
e 229 216
e 230 8
e 230 32
e 230 48
e 230 56
e 230 64
e 230 72
e 230 80
e 230 88
e 230 104
e 230 112
e 230 120
e 230 128
e 230 136
e 230 160
e 230 184
e 230 200
e 230 208
e 230 216
e 231 8
e 231 16
e 231 32
e 231 48
e 231 104
e 231 120
e 231 128
e 231 136
e 231 144
e 231 152
e 231 160
e 231 168
e 231 176
e 231 184
e 231 192
e 231 208
e 231 224
e 232 16
e 232 40
e 232 48
e 232 56
e 232 64
e 232 72
e 232 80
e 232 96
e 232 104
e 232 112
e 232 120
e 232 136
e 232 176
e 232 192
e 233 32
e 233 40
e 233 48
e 233 56
e 233 64
e 233 80
e 233 88
e 233 96
e 233 104
e 233 120
e 233 136
e 233 144
e 233 168
e 233 192
e 233 200
e 233 224
e 234 8
e 234 24
e 234 48
e 234 64
e 234 72
e 234 80
e 234 88
e 234 96
e 234 104
e 234 136
e 234 144
e 234 184
e 234 192
e 234 208
e 234 216
e 234 224
e 235 24
e 235 32
e 235 40
e 235 48
e 235 72
e 235 88
e 235 96
e 235 128
e 235 136
e 235 144
e 235 152
e 235 208
e 236 24
e 236 32
e 236 40
e 236 48
e 236 56
e 236 72
e 236 80
e 236 88
e 236 120
e 236 144
e 236 160
e 236 184
e 236 200
e 236 216
e 236 224
e 237 16
e 237 24
e 237 56
e 237 72
e 237 96
e 237 104
e 237 120
e 237 128
e 237 144
e 237 184
e 237 192
e 237 200
e 237 208
e 238 48
e 238 64
e 238 72
e 238 88
e 238 96
e 238 104
e 238 120
e 238 128
e 238 136
e 238 152
e 238 160
e 238 168
e 238 176
e 238 184
e 238 208
e 238 224
e 239 8
e 239 16
e 239 24
e 239 40
e 239 56
e 239 72
e 239 88
e 239 96
e 239 112
e 239 128
e 239 144
e 239 160
e 239 176
e 239 208
e 239 216
e 240 8
e 240 24
e 240 40
e 240 56
e 240 88
e 240 96
e 240 152
e 240 160
e 240 168
e 240 192
e 240 200
e 240 216
e 240 224
e 241 16
e 241 48
e 241 56
e 241 72
e 241 80
e 241 88
e 241 112
e 241 120
e 241 128
e 241 144
e 241 160
e 241 184
e 241 192
e 241 200
e 241 208
e 241 216
e 242 8
e 242 16
e 242 40
e 242 48
e 242 64
e 242 72
e 242 80
e 242 88
e 242 104
e 242 112
e 242 128
e 242 136
e 242 176
e 242 192
e 242 224
e 242 232
e 243 32
e 243 40
e 243 80
e 243 96
e 243 104
e 243 112
e 243 136
e 243 144
e 243 152
e 243 168
e 243 176
e 243 200
e 243 224
e 243 240
e 244 16
e 244 24
e 244 32
e 244 40
e 244 64
e 244 72
e 244 80
e 244 96
e 244 112
e 244 136
e 244 184
e 244 208
e 244 224
e 244 240
e 245 8
e 245 16
e 245 32
e 245 40
e 245 48
e 245 56
e 245 80
e 245 88
e 245 112
e 245 120
e 245 160
e 245 168
e 245 184
e 245 192
e 245 200
e 245 208
e 245 224
e 245 232
e 245 240
e 246 8
e 246 24
e 246 64
e 246 72
e 246 88
e 246 104
e 246 120
e 246 136
e 246 144
e 246 152
e 246 160
e 246 176
e 246 184
e 246 200
e 246 224
e 246 232
e 247 8
e 247 16
e 247 32
e 247 48
e 247 56
e 247 104
e 247 112
e 247 120
e 247 128
e 247 144
e 247 152
e 247 176
e 247 192
e 247 200
e 247 216
e 247 232
e 247 240
e 248 32
e 248 40
e 248 56
e 248 72
e 248 88
e 248 96
e 248 136
e 248 144
e 248 152
e 248 160
e 248 176
e 248 184
e 248 192
e 248 200
e 248 208
e 248 224
e 248 240
e 249 16
e 249 48
e 249 56
e 249 80
e 249 88
e 249 96
e 249 104
e 249 112
e 249 120
e 249 128
e 249 136
e 249 152
e 249 160
e 249 184
e 249 192
e 249 216
e 249 232
e 249 240
e 250 8
e 250 24
e 250 32
e 250 48
e 250 72
e 250 112
e 250 120
e 250 160
e 250 168
e 250 200
e 250 208
e 250 224
e 250 232
e 251 8
e 251 40
e 251 56
e 251 64
e 251 72
e 251 80
e 251 88
e 251 96
e 251 120
e 251 136
e 251 168
e 251 200
e 251 208
e 251 216
e 251 224
e 251 232
e 252 8
e 252 24
e 252 32
e 252 48
e 252 64
e 252 80
e 252 96
e 252 120
e 252 128
e 252 152
e 252 160
e 252 176
e 252 192
e 252 208
e 252 216
e 253 8
e 253 16
e 253 24
e 253 40
e 253 56
e 253 88
e 253 96
e 253 112
e 253 144
e 253 152
e 253 168
e 253 176
e 253 184
e 253 192
e 253 240
e 254 24
e 254 40
e 254 48
e 254 56
e 254 64
e 254 72
e 254 88
e 254 96
e 254 120
e 254 128
e 254 144
e 254 152
e 254 168
e 254 176
e 254 208
e 254 216
e 254 224
e 254 232
e 254 240
e 255 8
e 255 16
e 255 32
e 255 40
e 255 72
e 255 80
e 255 96
e 255 104
e 255 128
e 255 136
e 255 152
e 255 160
e 255 176
e 255 192
e 255 200
e 255 208
e 255 232
e 256 16
e 256 24
e 256 88
e 256 96
e 256 104
e 256 112
e 256 120
e 256 128
e 256 136
e 256 160
e 256 168
e 256 200
e 256 208
e 256 224
e 256 240
e 257 8
e 257 24
e 257 32
e 257 40
e 257 48
e 257 64
e 257 72
e 257 80
e 257 88
e 257 96
e 257 104
e 257 112
e 257 120
e 257 128
e 257 136
e 257 168
e 257 176
e 257 184
e 257 192
e 257 200
e 257 216
e 257 240
e 258 24
e 258 32
e 258 40
e 258 96
e 258 104
e 258 120
e 258 128
e 258 136
e 258 144
e 258 152
e 258 160
e 258 192
e 258 200
e 258 216
e 258 224
e 258 248
e 259 8
e 259 16
e 259 32
e 259 48
e 259 72
e 259 104
e 259 128
e 259 136
e 259 144
e 259 192
e 259 216
e 259 240
e 260 8
e 260 16
e 260 48
e 260 72
e 260 96
e 260 104
e 260 152
e 260 184
e 260 192
e 260 200
e 260 216
e 260 248
e 261 24
e 261 40
e 261 48
e 261 56
e 261 64
e 261 72
e 261 80
e 261 88
e 261 96
e 261 104
e 261 120
e 261 136
e 261 152
e 261 168
e 261 184
e 261 192
e 261 216
e 261 232
e 261 240
e 261 248
e 262 8
e 262 16
e 262 24
e 262 32
e 262 88
e 262 112
e 262 120
e 262 128
e 262 136
e 262 152
e 262 160
e 262 168
e 262 232
e 262 248
e 263 8
e 263 24
e 263 40
e 263 64
e 263 72
e 263 88
e 263 112
e 263 160
e 263 168
e 263 200
e 263 248
e 264 8
e 264 16
e 264 24
e 264 32
e 264 56
e 264 64
e 264 72
e 264 80
e 264 96
e 264 120
e 264 136
e 264 152
e 264 160
e 264 168
e 264 176
e 264 208
e 264 224
e 264 232
e 264 240
e 264 248
e 265 8
e 265 32
e 265 40
e 265 48
e 265 64
e 265 80
e 265 88
e 265 96
e 265 104
e 265 128
e 265 136
e 265 176
e 265 184
e 265 192
e 265 200
e 265 208
e 265 216
e 265 224
e 265 232
e 266 16
e 266 32
e 266 48
e 266 56
e 266 72
e 266 80
e 266 112
e 266 184
e 266 200
e 266 216
e 266 224
e 266 240
e 267 16
e 267 24
e 267 40
e 267 48
e 267 56
e 267 64
e 267 80
e 267 88
e 267 120
e 267 128
e 267 144
e 267 160
e 267 168
e 267 192
e 267 224
e 267 248
e 268 16
e 268 24
e 268 32
e 268 40
e 268 56
e 268 72
e 268 80
e 268 88
e 268 120
e 268 144
e 268 152
e 268 160
e 268 168
e 268 176
e 268 200
e 268 224
e 268 240
e 269 40
e 269 48
e 269 56
e 269 64
e 269 72
e 269 88
e 269 96
e 269 112
e 269 128
e 269 136
e 269 168
e 269 184
e 269 208
e 269 224
e 269 240
e 270 8
e 270 32
e 270 56
e 270 64
e 270 96
e 270 120
e 270 128
e 270 152
e 270 160
e 270 176
e 270 192
e 270 200
e 270 208
e 270 224
e 270 232
e 270 248
e 271 8
e 271 40
e 271 48
e 271 56
e 271 64
e 271 88
e 271 96
e 271 104
e 271 144
e 271 152
e 271 160
e 271 176
e 271 192
e 271 200
e 271 216
e 271 232
e 271 240
e 271 248
e 271 264
e 272 24
e 272 32
e 272 56
e 272 64
e 272 72
e 272 80
e 272 88
e 272 104
e 272 120
e 272 128
e 272 136
e 272 152
e 272 184
e 272 192
e 272 216
e 272 224
e 272 240
e 272 248
e 273 8
e 273 16
e 273 32
e 273 40
e 273 48
e 273 64
e 273 72
e 273 80
e 273 88
e 273 96
e 273 104
e 273 144
e 273 152
e 273 160
e 273 168
e 273 192
e 273 224
e 273 232
e 273 248
e 273 256
e 274 16
e 274 32
e 274 64
e 274 80
e 274 120
e 274 128
e 274 136
e 274 144
e 274 160
e 274 168
e 274 176
e 274 192
e 274 208
e 274 216
e 274 240
e 274 264
e 275 24
e 275 56
e 275 72
e 275 88
e 275 104
e 275 112
e 275 136
e 275 184
e 275 200
e 275 216
e 276 8
e 276 16
e 276 24
e 276 48
e 276 64
e 276 96
e 276 112
e 276 120
e 276 128
e 276 152
e 276 184
e 276 192
e 276 200
e 276 216
e 276 224
e 276 232
e 276 240
e 276 256
e 276 264
e 277 8
e 277 16
e 277 24
e 277 32
e 277 48
e 277 64
e 277 80
e 277 88
e 277 96
e 277 128
e 277 152
e 277 168
e 277 208
e 277 248
e 277 256
e 278 8
e 278 32
e 278 48
e 278 64
e 278 72
e 278 80
e 278 88
e 278 128
e 278 136
e 278 160
e 278 168
e 278 208
e 278 216
e 278 240
e 278 248
e 279 40
e 279 56
e 279 88
e 279 104
e 279 112
e 279 128
e 279 152
e 279 160
e 279 168
e 279 192
e 279 208
e 279 232
e 279 240
e 279 256
e 279 264
e 280 32
e 280 56
e 280 80
e 280 104
e 280 112
e 280 120
e 280 144
e 280 152
e 280 160
e 280 168
e 280 176
e 280 208
e 280 232
e 280 248
e 280 256
e 280 264
e 281 8
e 281 24
e 281 32
e 281 40
e 281 56
e 281 88
e 281 96
e 281 128
e 281 136
e 281 144
e 281 168
e 281 184
e 281 232
e 281 248
e 282 24
e 282 40
e 282 48
e 282 56
e 282 64
e 282 72
e 282 112
e 282 120
e 282 136
e 282 176
e 282 184
e 282 192
e 282 200
e 282 208
e 282 216
e 282 232
e 282 248
e 282 256
e 282 264
e 283 8
e 283 16
e 283 32
e 283 40
e 283 72
e 283 88
e 283 96
e 283 104
e 283 120
e 283 128
e 283 152
e 283 168
e 283 176
e 283 200
e 283 208
e 283 216
e 283 240
e 284 8
e 284 24
e 284 40
e 284 64
e 284 72
e 284 80
e 284 104
e 284 120
e 284 128
e 284 160
e 284 192
e 284 208
e 284 224
e 284 232
e 285 24
e 285 40
e 285 72
e 285 80
e 285 112
e 285 136
e 285 144
e 285 160
e 285 168
e 285 184
e 285 192
e 285 208
e 285 216
e 285 224
e 285 232
e 285 248
e 285 256
e 285 264
e 286 24
e 286 32
e 286 48
e 286 56
e 286 72
e 286 80
e 286 88
e 286 104
e 286 120
e 286 128
e 286 136
e 286 144
e 286 160
e 286 184
e 286 256
e 286 264
e 286 272
e 287 8
e 287 16
e 287 32
e 287 40
e 287 56
e 287 88
e 287 104
e 287 152
e 287 160
e 287 184
e 287 192
e 287 208
e 287 248
e 287 256
e 287 272
e 288 8
e 288 24
e 288 64
e 288 80
e 288 96
e 288 120
e 288 128
e 288 152
e 288 208
e 288 224
e 288 232
e 288 256
e 288 264
e 288 272
e 289 16
e 289 48
e 289 56
e 289 64
e 289 72
e 289 96
e 289 104
e 289 112
e 289 120
e 289 144
e 289 160
e 289 168
e 289 184
e 289 192
e 289 200
e 289 208
e 289 216
e 289 232
e 289 248
e 289 256
e 289 272
e 290 24
e 290 32
e 290 40
e 290 48
e 290 96
e 290 120
e 290 136
e 290 144
e 290 152
e 290 192
e 290 200
e 290 216
e 290 256
e 290 264
e 290 280
e 291 24
e 291 40
e 291 48
e 291 72
e 291 88
e 291 96
e 291 104
e 291 112
e 291 120
e 291 128
e 291 136
e 291 152
e 291 168
e 291 176
e 291 184
e 291 200
e 291 224
e 291 232
e 291 248
e 291 272
e 291 280
e 292 16
e 292 24
e 292 40
e 292 48
e 292 56
e 292 80
e 292 104
e 292 112
e 292 144
e 292 152
e 292 160
e 292 168
e 292 184
e 292 208
e 292 224
e 292 240
e 292 248
e 292 256
e 292 264
e 292 272
e 292 280
e 293 8
e 293 80
e 293 120
e 293 152
e 293 160
e 293 176
e 293 184
e 293 192
e 293 200
e 293 208
e 293 232
e 293 248
e 293 256
e 293 264
e 293 272
e 294 8
e 294 16
e 294 32
e 294 40
e 294 48
e 294 64
e 294 72
e 294 80
e 294 88
e 294 104
e 294 168
e 294 184
e 294 208
e 294 216
e 294 232
e 294 240
e 294 248
e 294 264
e 294 272
e 294 280
e 295 16
e 295 40
e 295 56
e 295 72
e 295 80
e 295 88
e 295 96
e 295 104
e 295 112
e 295 120
e 295 128
e 295 144
e 295 168
e 295 192
e 295 216
e 295 280
e 296 24
e 296 32
e 296 48
e 296 72
e 296 88
e 296 104
e 296 120
e 296 128
e 296 136
e 296 152
e 296 184
e 296 208
e 296 240
e 296 248
e 296 264
e 297 40
e 297 48
e 297 80
e 297 88
e 297 96
e 297 112
e 297 120
e 297 160
e 297 168
e 297 184
e 297 200
e 297 216
e 297 232
e 297 256
e 297 264
e 297 280
e 298 16
e 298 24
e 298 32
e 298 40
e 298 56
e 298 64
e 298 80
e 298 96
e 298 168
e 298 216
e 298 224
e 298 232
e 298 248
e 298 256
e 299 8
e 299 56
e 299 64
e 299 72
e 299 80
e 299 96
e 299 104
e 299 128
e 299 144
e 299 152
e 299 160
e 299 168
e 299 192
e 299 200
e 299 216
e 299 224
e 299 240
e 299 272
e 299 280
e 300 8
e 300 40
e 300 48
e 300 96
e 300 136
e 300 160
e 300 168
e 300 192
e 300 216
e 300 224
e 300 264
e 300 280
